53734
30 24 299
24 10 545
10 44 436
44 51 722
51 14 631
14 35 679
35 38 503
38 45 214
45 15 645
15 21 737
21 9 117
9 28 648
28 22 687
22 20 176
20 16 638
16 47 415
47 48 761
48 18 934
18 40 1369
40 31 362
31 43 676
43 7 383
7 37 368
37 34 988
34 4 323
4 23 612
23 49 868
49 19 763
19 36 714
36 6 517
6 39 1176
39 50 1042
50 12 644
12 42 790
42 2 1096
2 5 385
5 27 404
27 54 487
54 25 397
25 52 1237
52 33 396
33 53 401
53 46 491
46 29 944
29 3 380
3 17 606
17 11 768
11 8 723
8 13 471
13 1 433
1 41 1722
41 32 4807
32 0 7621
0 26 4123
26 30 4460
